language ESSENCE' 1.0
letting K = 2
letting M = 8
letting Capacity = [180, 150]
letting TimeWindows = [[54, 594], [54, 594], [54, 594], [54, 594], [0, 460535], [0, 460535], [0, 460535], [0, 460535]]
letting Demand = [15, 30, 10, 50, -15, -30, -10, -50]
letting PDs = [[1, 5], [2, 6], [3, 7], [4, 8], [5, 5], [6, 6], [7, 7], [8, 8]]
letting TravelTime = [[0, 0, 36, 34, 53, 53, 53, 53, 53, 53, 53, 53], [0, 0, 36, 35, 53, 53, 53, 53, 53, 53, 53, 53], [30, 31, 0, 1, 25, 25, 25, 25, 25, 25, 25, 25], [28, 29, 1, 0, 24, 24, 24, 24, 24, 24, 24, 24], [48, 48, 25, 25, 0, 0, 0, 0, 0, 0, 0, 0], [48, 48, 25, 25, 0, 0, 0, 0, 0, 0, 0, 0], [48, 48, 25, 25, 0, 0, 0, 0, 0, 0, 0, 0], [48, 48, 25, 25, 0, 0, 0, 0, 0, 0, 0, 0], [48, 48, 25, 25, 0, 0, 0, 0, 0, 0, 0, 0], [48, 48, 25, 25, 0, 0, 0, 0, 0, 0, 0, 0], [48, 48, 25, 25, 0, 0, 0, 0, 0, 0, 0, 0], [48, 48, 25, 25, 0, 0, 0, 0, 0, 0, 0, 0]]
